objective value:                                   -3
t_n_18                                              1 	(obj:-1)
t_n_1335                                            1 	(obj:-1)
t_n_1450                                            1 	(obj:-1)
